db/inputs/17745229548992681078691495257367510.smt2
(set-logic QF_FP)
(declare-const x0 (_ FloatingPoint 11 53))
(declare-const x1 (_ FloatingPoint 11 53))
(declare-const x2 (_ FloatingPoint 11 53))
(declare-const x3 (_ FloatingPoint 11 53))
(declare-const x4 (_ FloatingPoint 11 53))
(declare-const x5 (_ FloatingPoint 11 53))
(declare-const x6 (_ FloatingPoint 11 53))
(declare-const x7 (_ FloatingPoint 11 53))
(declare-const x8 (_ FloatingPoint 11 53))
(declare-const x9 (_ FloatingPoint 11 53))
(assert (fp.lt (fp.add RNE x5 x7) (fp.div RNE x6 x8)))
(assert (fp.eq (fp.div RNE x5 x2) (fp.mul RNE x4 x8)))
(assert (fp.lt (fp.div RNE x6 x0) (fp.add RNE x0 x0)))
(assert (fp.leq (fp.sub RNE x5 x2) (fp.neg x9)))
(assert (fp.gt (fp.sub RNE x2 x4) (fp.div RNE x7 x9)))
(assert (fp.gt (fp.mul RNE x3 x6) (fp.sub RNE x5 x0)))
(assert (fp.gt (fp.neg x9) (fp.div RNE x2 x6)))
(assert (fp.leq (fp.sub RNE x6 x7) (fp.sub RNE x2 x2)))
(assert (fp.leq (fp.neg x8) (fp.mul RNE x6 x2)))
(assert (fp.eq (fp.add RNE x5 x7) (fp.mul RNE x0 x2)))
(assert (fp.eq (fp.neg x1) (fp.div RNE x0 x2)))
(assert (fp.gt (fp.sub RNE x2 x3) (fp.add RNE x5 x3)))
(assert (fp.geq (fp.div RNE x7 x2) (fp.div RNE x5 x6)))
(check-sat)
