db/data/17745229548992681078691495257367510.z3.out
-------------------
2500.116525582
